Route #1: 1 27 17 23 12 33 29 22 1
Route #2: 1 7 20 10 32 14 3 38 36 1
Route #3: 1 37 18 35 13 30 25 9 6 28 1
Route #4: 1 15 16 21 11 2 1
Route #5: 1 4 31 24 34 19 5 1
Route #6: 1 8 26 1
cost 863.6855583559563
